p cnf 396 1577
c p weight 14 -1 0
c p weight -14 1 0
c p weight 16 6.12323399573676603586882014729198302312846062338790031898128063403419218957424163818359375E-17 0
c p weight -16 1 0
c p weight 17 1 0
c p weight -17 1 0
c p weight 18 -1 0
c p weight -18 1 0
c p weight 20 -1 0
c p weight -20 1 0
c p weight 22 -1 0
c p weight -22 1 0
c p weight 24 6.12323399573676603586882014729198302312846062338790031898128063403419218957424163818359375E-17 0
c p weight -24 1 0
c p weight 25 1 0
c p weight -25 1 0
c p weight 26 -1 0
c p weight -26 1 0
c p weight 28 -1 0
c p weight -28 1 0
c p weight 30 -1 0
c p weight -30 1 0
c p weight 32 6.12323399573676603586882014729198302312846062338790031898128063403419218957424163818359375E-17 0
c p weight -32 1 0
c p weight 33 1 0
c p weight -33 1 0
c p weight 34 -1 0
c p weight -34 1 0
c p weight 36 -1 0
c p weight -36 1 0
c p weight 39 -1 0
c p weight -39 1 0
c p weight 41 -0.27806687472731483889987202928750775754451751708984375 0
c p weight -41 1 0
c p weight 42 0.96056171752750163506107128341682255268096923828125 0
c p weight -42 1 0
c p weight 43 -1 0
c p weight -43 1 0
c p weight 46 -1 0
c p weight -46 1 0
c p weight 48 -1 0
c p weight -48 1 0
c p weight 50 6.12323399573676603586882014729198302312846062338790031898128063403419218957424163818359375E-17 0
c p weight -50 1 0
c p weight 51 1 0
c p weight -51 1 0
c p weight 52 -1 0
c p weight -52 1 0
c p weight 54 -1 0
c p weight -54 1 0
c p weight 57 -1 0
c p weight -57 1 0
c p weight 59 -0.27806687472731483889987202928750775754451751708984375 0
c p weight -59 1 0
c p weight 60 0.96056171752750163506107128341682255268096923828125 0
c p weight -60 1 0
c p weight 61 -1 0
c p weight -61 1 0
c p weight 64 -1 0
c p weight -64 1 0
c p weight 66 -1 0
c p weight -66 1 0
c p weight 68 6.12323399573676603586882014729198302312846062338790031898128063403419218957424163818359375E-17 0
c p weight -68 1 0
c p weight 69 1 0
c p weight -69 1 0
c p weight 70 -1 0
c p weight -70 1 0
c p weight 72 -0.79926710334653605638521867149393074214458465576171875 0
c p weight -72 1 0
c p weight 73 0.6009759541845560715245255778427235782146453857421875 0
c p weight -73 1 0
c p weight 74 -1 0
c p weight -74 1 0
c p weight 76 6.12323399573676603586882014729198302312846062338790031898128063403419218957424163818359375E-17 0
c p weight -76 1 0
c p weight 77 1 0
c p weight -77 1 0
c p weight 78 -1 0
c p weight -78 1 0
c p weight 80 3.0616169978683831411939265144290861071468186371292985459291458028019405901432037353515625E-16 0
c p weight -80 1 0
c p weight 81 1 0
c p weight -81 1 0
c p weight 82 -1 0
c p weight -82 1 0
c p weight 84 -1 0
c p weight -84 1 0
c p weight 86 6.12323399573676603586882014729198302312846062338790031898128063403419218957424163818359375E-17 0
c p weight -86 1 0
c p weight 87 1 0
c p weight -87 1 0
c p weight 88 -1 0
c p weight -88 1 0
c p weight 90 -1 0
c p weight -90 1 0
c p weight 93 -1 0
c p weight -93 1 0
c p weight 95 -0.27806687472731483889987202928750775754451751708984375 0
c p weight -95 1 0
c p weight 96 0.96056171752750163506107128341682255268096923828125 0
c p weight -96 1 0
c p weight 97 -1 0
c p weight -97 1 0
c p weight 100 -1 0
c p weight -100 1 0
c p weight 103 -1 0
c p weight -103 1 0
c p weight 105 -0.27806687472731483889987202928750775754451751708984375 0
c p weight -105 1 0
c p weight 106 0.96056171752750163506107128341682255268096923828125 0
c p weight -106 1 0
c p weight 107 -1 0
c p weight -107 1 0
c p weight 110 -1 0
c p weight -110 1 0
c p weight 112 -1 0
c p weight -112 1 0
c p weight 114 6.12323399573676603586882014729198302312846062338790031898128063403419218957424163818359375E-17 0
c p weight -114 1 0
c p weight 115 1 0
c p weight -115 1 0
c p weight 116 -1 0
c p weight -116 1 0
c p weight 118 -0.79926710334653605638521867149393074214458465576171875 0
c p weight -118 1 0
c p weight 119 0.6009759541845560715245255778427235782146453857421875 0
c p weight -119 1 0
c p weight 120 -1 0
c p weight -120 1 0
c p weight 122 6.12323399573676603586882014729198302312846062338790031898128063403419218957424163818359375E-17 0
c p weight -122 1 0
c p weight 123 1 0
c p weight -123 1 0
c p weight 124 -1 0
c p weight -124 1 0
c p weight 126 3.0616169978683831411939265144290861071468186371292985459291458028019405901432037353515625E-16 0
c p weight -126 1 0
c p weight 127 1 0
c p weight -127 1 0
c p weight 128 -1 0
c p weight -128 1 0
c p weight 131 -1 0
c p weight -131 1 0
c p weight 133 0.799275844709931515552625569398514926433563232421875 0
c p weight -133 1 0
c p weight 134 0.60096432844489655611397438406129367649555206298828125 0
c p weight -134 1 0
c p weight 135 -1 0
c p weight -135 1 0
c p weight 138 -1 0
c p weight -138 1 0
c p weight 140 -1 0
c p weight -140 1 0
c p weight 142 6.12323399573676603586882014729198302312846062338790031898128063403419218957424163818359375E-17 0
c p weight -142 1 0
c p weight 143 1 0
c p weight -143 1 0
c p weight 144 -1 0
c p weight -144 1 0
c p weight 146 -0.79926710334653605638521867149393074214458465576171875 0
c p weight -146 1 0
c p weight 147 0.6009759541845560715245255778427235782146453857421875 0
c p weight -147 1 0
c p weight 148 -1 0
c p weight -148 1 0
c p weight 150 6.12323399573676603586882014729198302312846062338790031898128063403419218957424163818359375E-17 0
c p weight -150 1 0
c p weight 151 1 0
c p weight -151 1 0
c p weight 152 -1 0
c p weight -152 1 0
c p weight 154 3.0616169978683831411939265144290861071468186371292985459291458028019405901432037353515625E-16 0
c p weight -154 1 0
c p weight 155 1 0
c p weight -155 1 0
c p weight 156 -1 0
c p weight -156 1 0
c p weight 158 -1 0
c p weight -158 1 0
c p weight 160 6.12323399573676603586882014729198302312846062338790031898128063403419218957424163818359375E-17 0
c p weight -160 1 0
c p weight 161 1 0
c p weight -161 1 0
c p weight 162 -1 0
c p weight -162 1 0
c p weight 164 -1 0
c p weight -164 1 0
c p weight 167 -1 0
c p weight -167 1 0
c p weight 169 -0.27806687472731483889987202928750775754451751708984375 0
c p weight -169 1 0
c p weight 170 0.96056171752750163506107128341682255268096923828125 0
c p weight -170 1 0
c p weight 171 -1 0
c p weight -171 1 0
c p weight 174 -1 0
c p weight -174 1 0
c p weight 176 -1 0
c p weight -176 1 0
c p weight 178 6.12323399573676603586882014729198302312846062338790031898128063403419218957424163818359375E-17 0
c p weight -178 1 0
c p weight 179 1 0
c p weight -179 1 0
c p weight 180 -1 0
c p weight -180 1 0
c p weight 182 -0.79926710334653605638521867149393074214458465576171875 0
c p weight -182 1 0
c p weight 183 0.6009759541845560715245255778427235782146453857421875 0
c p weight -183 1 0
c p weight 184 -1 0
c p weight -184 1 0
c p weight 186 6.12323399573676603586882014729198302312846062338790031898128063403419218957424163818359375E-17 0
c p weight -186 1 0
c p weight 187 1 0
c p weight -187 1 0
c p weight 188 -1 0
c p weight -188 1 0
c p weight 190 3.0616169978683831411939265144290861071468186371292985459291458028019405901432037353515625E-16 0
c p weight -190 1 0
c p weight 191 1 0
c p weight -191 1 0
c p weight 192 -1 0
c p weight -192 1 0
c p weight 195 -1 0
c p weight -195 1 0
c p weight 198 -1 0
c p weight -198 1 0
c p weight 200 0.799275844709931515552625569398514926433563232421875 0
c p weight -200 1 0
c p weight 201 0.60096432844489655611397438406129367649555206298828125 0
c p weight -201 1 0
c p weight 202 -1 0
c p weight -202 1 0
c p weight 205 -1 0
c p weight -205 1 0
c p weight 208 -1 0
c p weight -208 1 0
c p weight 210 0.799275844709931515552625569398514926433563232421875 0
c p weight -210 1 0
c p weight 211 0.60096432844489655611397438406129367649555206298828125 0
c p weight -211 1 0
c p weight 212 -1 0
c p weight -212 1 0
c p weight 215 -1 0
c p weight -215 1 0
c p weight 217 -1 0
c p weight -217 1 0
c p weight 219 6.12323399573676603586882014729198302312846062338790031898128063403419218957424163818359375E-17 0
c p weight -219 1 0
c p weight 220 1 0
c p weight -220 1 0
c p weight 221 -1 0
c p weight -221 1 0
c p weight 223 -0.27713396395205125433136572610237635672092437744140625 0
c p weight -223 1 0
c p weight 224 -0.96083128905350656534523068330599926412105560302734375 0
c p weight -224 1 0
c p weight 225 -1 0
c p weight -225 1 0
c p weight 227 6.12323399573676603586882014729198302312846062338790031898128063403419218957424163818359375E-17 0
c p weight -227 1 0
c p weight 228 1 0
c p weight -228 1 0
c p weight 229 -1 0
c p weight -229 1 0
c p weight 231 3.0616169978683831411939265144290861071468186371292985459291458028019405901432037353515625E-16 0
c p weight -231 1 0
c p weight 232 1 0
c p weight -232 1 0
c p weight 233 -1 0
c p weight -233 1 0
c p weight 235 -1 0
c p weight -235 1 0
c p weight 237 6.12323399573676603586882014729198302312846062338790031898128063403419218957424163818359375E-17 0
c p weight -237 1 0
c p weight 238 1 0
c p weight -238 1 0
c p weight 239 -1 0
c p weight -239 1 0
c p weight 241 -0.27713396395205125433136572610237635672092437744140625 0
c p weight -241 1 0
c p weight 242 -0.96083128905350656534523068330599926412105560302734375 0
c p weight -242 1 0
c p weight 243 -1 0
c p weight -243 1 0
c p weight 245 6.12323399573676603586882014729198302312846062338790031898128063403419218957424163818359375E-17 0
c p weight -245 1 0
c p weight 246 1 0
c p weight -246 1 0
c p weight 247 -1 0
c p weight -247 1 0
c p weight 249 3.0616169978683831411939265144290861071468186371292985459291458028019405901432037353515625E-16 0
c p weight -249 1 0
c p weight 250 1 0
c p weight -250 1 0
c p weight 251 -1 0
c p weight -251 1 0
c p weight 253 -0.27806687472731483889987202928750775754451751708984375 0
c p weight -253 1 0
c p weight 254 0.96056171752750163506107128341682255268096923828125 0
c p weight -254 1 0
c p weight 255 -1 0
c p weight -255 1 0
c p weight 258 -1 0
c p weight -258 1 0
c p weight 260 -1 0
c p weight -260 1 0
c p weight 262 6.12323399573676603586882014729198302312846062338790031898128063403419218957424163818359375E-17 0
c p weight -262 1 0
c p weight 263 1 0
c p weight -263 1 0
c p weight 264 -1 0
c p weight -264 1 0
c p weight 266 -0.79926710334653605638521867149393074214458465576171875 0
c p weight -266 1 0
c p weight 267 0.6009759541845560715245255778427235782146453857421875 0
c p weight -267 1 0
c p weight 268 -1 0
c p weight -268 1 0
c p weight 270 6.12323399573676603586882014729198302312846062338790031898128063403419218957424163818359375E-17 0
c p weight -270 1 0
c p weight 271 1 0
c p weight -271 1 0
c p weight 272 -1 0
c p weight -272 1 0
c p weight 274 3.0616169978683831411939265144290861071468186371292985459291458028019405901432037353515625E-16 0
c p weight -274 1 0
c p weight 275 1 0
c p weight -275 1 0
c p weight 276 -1 0
c p weight -276 1 0
c p weight 279 -1 0
c p weight -279 1 0
c p weight 281 0.799275844709931515552625569398514926433563232421875 0
c p weight -281 1 0
c p weight 282 0.60096432844489655611397438406129367649555206298828125 0
c p weight -282 1 0
c p weight 283 -1 0
c p weight -283 1 0
c p weight 286 -1 0
c p weight -286 1 0
c p weight 288 -1 0
c p weight -288 1 0
c p weight 290 6.12323399573676603586882014729198302312846062338790031898128063403419218957424163818359375E-17 0
c p weight -290 1 0
c p weight 291 1 0
c p weight -291 1 0
c p weight 292 -1 0
c p weight -292 1 0
c p weight 294 -0.27713396395205125433136572610237635672092437744140625 0
c p weight -294 1 0
c p weight 295 -0.96083128905350656534523068330599926412105560302734375 0
c p weight -295 1 0
c p weight 296 -1 0
c p weight -296 1 0
c p weight 298 6.12323399573676603586882014729198302312846062338790031898128063403419218957424163818359375E-17 0
c p weight -298 1 0
c p weight 299 1 0
c p weight -299 1 0
c p weight 300 -1 0
c p weight -300 1 0
c p weight 302 3.0616169978683831411939265144290861071468186371292985459291458028019405901432037353515625E-16 0
c p weight -302 1 0
c p weight 303 1 0
c p weight -303 1 0
c p weight 304 -1 0
c p weight -304 1 0
c p weight 306 -1 0
c p weight -306 1 0
c p weight 308 6.12323399573676603586882014729198302312846062338790031898128063403419218957424163818359375E-17 0
c p weight -308 1 0
c p weight 309 1 0
c p weight -309 1 0
c p weight 310 -1 0
c p weight -310 1 0
c p weight 312 -0.79926710334653605638521867149393074214458465576171875 0
c p weight -312 1 0
c p weight 313 0.6009759541845560715245255778427235782146453857421875 0
c p weight -313 1 0
c p weight 314 -1 0
c p weight -314 1 0
c p weight 316 6.12323399573676603586882014729198302312846062338790031898128063403419218957424163818359375E-17 0
c p weight -316 1 0
c p weight 317 1 0
c p weight -317 1 0
c p weight 318 -1 0
c p weight -318 1 0
c p weight 320 3.0616169978683831411939265144290861071468186371292985459291458028019405901432037353515625E-16 0
c p weight -320 1 0
c p weight 321 1 0
c p weight -321 1 0
c p weight 322 -1 0
c p weight -322 1 0
c p weight 325 -1 0
c p weight -325 1 0
c p weight 327 0.799275844709931515552625569398514926433563232421875 0
c p weight -327 1 0
c p weight 328 0.60096432844489655611397438406129367649555206298828125 0
c p weight -328 1 0
c p weight 329 -1 0
c p weight -329 1 0
c p weight 332 -1 0
c p weight -332 1 0
c p weight 334 -1 0
c p weight -334 1 0
c p weight 336 6.12323399573676603586882014729198302312846062338790031898128063403419218957424163818359375E-17 0
c p weight -336 1 0
c p weight 337 1 0
c p weight -337 1 0
c p weight 338 -1 0
c p weight -338 1 0
c p weight 340 -0.27713396395205125433136572610237635672092437744140625 0
c p weight -340 1 0
c p weight 341 -0.96083128905350656534523068330599926412105560302734375 0
c p weight -341 1 0
c p weight 342 -1 0
c p weight -342 1 0
c p weight 344 6.12323399573676603586882014729198302312846062338790031898128063403419218957424163818359375E-17 0
c p weight -344 1 0
c p weight 345 1 0
c p weight -345 1 0
c p weight 346 -1 0
c p weight -346 1 0
c p weight 348 3.0616169978683831411939265144290861071468186371292985459291458028019405901432037353515625E-16 0
c p weight -348 1 0
c p weight 349 1 0
c p weight -349 1 0
c p weight 350 -1 0
c p weight -350 1 0
c p weight 353 -1 0
c p weight -353 1 0
c p weight 355 0.799275844709931515552625569398514926433563232421875 0
c p weight -355 1 0
c p weight 356 0.60096432844489655611397438406129367649555206298828125 0
c p weight -356 1 0
c p weight 357 -1 0
c p weight -357 1 0
c p weight 360 -1 0
c p weight -360 1 0
c p weight 362 -1 0
c p weight -362 1 0
c p weight 364 6.12323399573676603586882014729198302312846062338790031898128063403419218957424163818359375E-17 0
c p weight -364 1 0
c p weight 365 1 0
c p weight -365 1 0
c p weight 366 -1 0
c p weight -366 1 0
c p weight 368 -0.27713396395205125433136572610237635672092437744140625 0
c p weight -368 1 0
c p weight 369 -0.96083128905350656534523068330599926412105560302734375 0
c p weight -369 1 0
c p weight 370 -1 0
c p weight -370 1 0
c p weight 372 6.12323399573676603586882014729198302312846062338790031898128063403419218957424163818359375E-17 0
c p weight -372 1 0
c p weight 373 1 0
c p weight -373 1 0
c p weight 374 -1 0
c p weight -374 1 0
c p weight 376 3.0616169978683831411939265144290861071468186371292985459291458028019405901432037353515625E-16 0
c p weight -376 1 0
c p weight 377 1 0
c p weight -377 1 0
c p weight 378 -1 0
c p weight -378 1 0
c p weight 380 -1 0
c p weight -380 1 0
c p weight 382 6.12323399573676603586882014729198302312846062338790031898128063403419218957424163818359375E-17 0
c p weight -382 1 0
c p weight 383 1 0
c p weight -383 1 0
c p weight 384 -1 0
c p weight -384 1 0
c p weight 386 -0.27713396395205125433136572610237635672092437744140625 0
c p weight -386 1 0
c p weight 387 -0.96083128905350656534523068330599926412105560302734375 0
c p weight -387 1 0
c p weight 388 -1 0
c p weight -388 1 0
c p weight 390 6.12323399573676603586882014729198302312846062338790031898128063403419218957424163818359375E-17 0
c p weight -390 1 0
c p weight 391 1 0
c p weight -391 1 0
c p weight 392 -1 0
c p weight -392 1 0
c p weight 394 3.0616169978683831411939265144290861071468186371292985459291458028019405901432037353515625E-16 0
c p weight -394 1 0
c p weight 395 1 0
c p weight -395 1 0
c p weight 396 -1 0
c p weight -396 1 0
-11 0
-9 0
-7 0
-5 0
-3 0
-1 0
13 1 -2 0
13 -1 2 0
-13 1 2 0
-13 -1 -2 0
-14 1 0
-14 2 0
14 -1 -2 0
15 -1 13 0
-15 1 13 0
-16 13 0
15 -16 -1 0
-15 -16 1 0
15 16 1 -13 0
-15 16 -1 -13 0
-17 13 0
15 -17 1 0
-15 -17 -1 0
15 17 -1 -13 0
-15 17 1 -13 0
-18 15 0
-18 13 0
-18 -1 0
18 -15 1 -13 0
19 15 -13 0
19 -15 13 0
-19 15 13 0
-19 -15 -13 0
-20 15 0
-20 13 0
20 -15 -13 0
21 3 -4 0
21 -3 4 0
-21 3 4 0
-21 -3 -4 0
-22 3 0
-22 4 0
22 -3 -4 0
23 -3 21 0
-23 3 21 0
-24 21 0
23 -24 -3 0
-23 -24 3 0
23 24 3 -21 0
-23 24 -3 -21 0
-25 21 0
23 -25 3 0
-23 -25 -3 0
23 25 -3 -21 0
-23 25 3 -21 0
-26 23 0
-26 21 0
-26 -3 0
26 -23 3 -21 0
27 23 -21 0
27 -23 21 0
-27 23 21 0
-27 -23 -21 0
-28 23 0
-28 21 0
28 -23 -21 0
29 5 -6 0
29 -5 6 0
-29 5 6 0
-29 -5 -6 0
-30 5 0
-30 6 0
30 -5 -6 0
31 -5 29 0
-31 5 29 0
-32 29 0
31 -32 -5 0
-31 -32 5 0
31 32 5 -29 0
-31 32 -5 -29 0
-33 29 0
31 -33 5 0
-31 -33 -5 0
31 33 -5 -29 0
-31 33 5 -29 0
-34 31 0
-34 29 0
-34 -5 0
34 -31 5 -29 0
35 31 -29 0
35 -31 29 0
-35 31 29 0
-35 -31 -29 0
-36 31 0
-36 29 0
36 -31 -29 0
37 15 -31 0
37 -15 31 0
-37 15 31 0
-37 -15 -31 0
38 19 -35 0
38 -19 35 0
-38 19 35 0
-38 -19 -35 0
-39 15 0
-39 35 0
-39 31 -19 0
-39 -31 19 0
39 -15 31 19 -35 0
39 -15 -31 -19 -35 0
40 37 -35 0
-40 37 35 0
-41 37 0
40 -41 -35 0
-40 -41 35 0
40 41 -37 35 0
-40 41 -37 -35 0
-42 37 0
40 -42 35 0
-40 -42 -35 0
40 42 -37 -35 0
-40 42 -37 35 0
-43 37 0
-43 35 0
-43 -40 0
43 40 -37 -35 0
44 15 -37 0
44 -15 37 0
-44 15 37 0
-44 -15 -37 0
45 38 -40 0
45 -38 40 0
-45 38 40 0
-45 -38 -40 0
-46 15 0
-46 40 0
-46 37 -38 0
-46 -37 38 0
46 -15 37 38 -40 0
46 -15 -37 -38 -40 0
47 7 -8 0
47 -7 8 0
-47 7 8 0
-47 -7 -8 0
-48 7 0
-48 8 0
48 -7 -8 0
49 -7 47 0
-49 7 47 0
-50 47 0
49 -50 -7 0
-49 -50 7 0
49 50 7 -47 0
-49 50 -7 -47 0
-51 47 0
49 -51 7 0
-49 -51 -7 0
49 51 -7 -47 0
-49 51 7 -47 0
-52 49 0
-52 47 0
-52 -7 0
52 -49 7 -47 0
53 49 -47 0
53 -49 47 0
-53 49 47 0
-53 -49 -47 0
-54 49 0
-54 47 0
54 -49 -47 0
55 15 -49 0
55 -15 49 0
-55 15 49 0
-55 -15 -49 0
56 45 -53 0
56 -45 53 0
-56 45 53 0
-56 -45 -53 0
-57 15 0
-57 53 0
-57 49 -45 0
-57 -49 45 0
57 -15 49 45 -53 0
57 -15 -49 -45 -53 0
58 55 -53 0
-58 55 53 0
-59 55 0
58 -59 -53 0
-58 -59 53 0
58 59 -55 53 0
-58 59 -55 -53 0
-60 55 0
58 -60 53 0
-58 -60 -53 0
58 60 -55 -53 0
-58 60 -55 53 0
-61 55 0
-61 53 0
-61 -58 0
61 58 -55 -53 0
62 15 -55 0
62 -15 55 0
-62 15 55 0
-62 -15 -55 0
63 56 -58 0
63 -56 58 0
-63 56 58 0
-63 -56 -58 0
-64 15 0
-64 58 0
-64 55 -56 0
-64 -55 56 0
64 -15 55 56 -58 0
64 -15 -55 -56 -58 0
65 15 -63 0
65 -15 63 0
-65 15 63 0
-65 -15 -63 0
-66 15 0
-66 63 0
66 -15 -63 0
67 -15 65 0
-67 15 65 0
-68 65 0
67 -68 -15 0
-67 -68 15 0
67 68 15 -65 0
-67 68 -15 -65 0
-69 65 0
67 -69 15 0
-67 -69 -15 0
67 69 -15 -65 0
-67 69 15 -65 0
-70 67 0
-70 65 0
-70 -15 0
70 -67 15 -65 0
71 67 -65 0
-71 67 65 0
-72 67 0
71 -72 -65 0
-71 -72 65 0
71 72 -67 65 0
-71 72 -67 -65 0
-73 67 0
71 -73 65 0
-71 -73 -65 0
71 73 -67 -65 0
-71 73 -67 65 0
-74 67 0
-74 65 0
-74 -71 0
74 71 -67 -65 0
75 -67 71 0
-75 67 71 0
-76 71 0
75 -76 -67 0
-75 -76 67 0
75 76 67 -71 0
-75 76 -67 -71 0
-77 71 0
75 -77 67 0
-75 -77 -67 0
75 77 -67 -71 0
-75 77 67 -71 0
-78 75 0
-78 71 0
-78 -67 0
78 -75 67 -71 0
79 75 -71 0
-79 75 71 0
-80 75 0
79 -80 -71 0
-79 -80 71 0
79 80 -75 71 0
-79 80 -75 -71 0
-81 75 0
79 -81 71 0
-79 -81 -71 0
79 81 -75 -71 0
-79 81 -75 71 0
-82 75 0
-82 71 0
-82 -79 0
82 79 -75 -71 0
83 9 -10 0
83 -9 10 0
-83 9 10 0
-83 -9 -10 0
-84 9 0
-84 10 0
84 -9 -10 0
85 -9 83 0
-85 9 83 0
-86 83 0
85 -86 -9 0
-85 -86 9 0
85 86 9 -83 0
-85 86 -9 -83 0
-87 83 0
85 -87 9 0
-85 -87 -9 0
85 87 -9 -83 0
-85 87 9 -83 0
-88 85 0
-88 83 0
-88 -9 0
88 -85 9 -83 0
89 85 -83 0
89 -85 83 0
-89 85 83 0
-89 -85 -83 0
-90 85 0
-90 83 0
90 -85 -83 0
91 23 -85 0
91 -23 85 0
-91 23 85 0
-91 -23 -85 0
92 27 -89 0
92 -27 89 0
-92 27 89 0
-92 -27 -89 0
-93 23 0
-93 89 0
-93 85 -27 0
-93 -85 27 0
93 -23 85 27 -89 0
93 -23 -85 -27 -89 0
94 91 -89 0
-94 91 89 0
-95 91 0
94 -95 -89 0
-94 -95 89 0
94 95 -91 89 0
-94 95 -91 -89 0
-96 91 0
94 -96 89 0
-94 -96 -89 0
94 96 -91 -89 0
-94 96 -91 89 0
-97 91 0
-97 89 0
-97 -94 0
97 94 -91 -89 0
98 23 -91 0
98 -23 91 0
-98 23 91 0
-98 -23 -91 0
99 92 -94 0
99 -92 94 0
-99 92 94 0
-99 -92 -94 0
-100 23 0
-100 94 0
-100 91 -92 0
-100 -91 92 0
100 -23 91 92 -94 0
100 -23 -91 -92 -94 0
101 44 -98 0
101 -44 98 0
-101 44 98 0
-101 -44 -98 0
102 40 -94 0
102 -40 94 0
-102 40 94 0
-102 -40 -94 0
-103 44 0
-103 94 0
-103 98 -40 0
-103 -98 40 0
103 -44 98 40 -94 0
103 -44 -98 -40 -94 0
104 101 -94 0
-104 101 94 0
-105 101 0
104 -105 -94 0
-104 -105 94 0
104 105 -101 94 0
-104 105 -101 -94 0
-106 101 0
104 -106 94 0
-104 -106 -94 0
104 106 -101 -94 0
-104 106 -101 94 0
-107 101 0
-107 94 0
-107 -104 0
107 104 -101 -94 0
108 44 -101 0
108 -44 101 0
-108 44 101 0
-108 -44 -101 0
109 102 -104 0
109 -102 104 0
-109 102 104 0
-109 -102 -104 0
-110 44 0
-110 104 0
-110 101 -102 0
-110 -101 102 0
110 -44 101 102 -104 0
110 -44 -101 -102 -104 0
111 44 -109 0
111 -44 109 0
-111 44 109 0
-111 -44 -109 0
-112 44 0
-112 109 0
112 -44 -109 0
113 -44 111 0
-113 44 111 0
-114 111 0
113 -114 -44 0
-113 -114 44 0
113 114 44 -111 0
-113 114 -44 -111 0
-115 111 0
113 -115 44 0
-113 -115 -44 0
113 115 -44 -111 0
-113 115 44 -111 0
-116 113 0
-116 111 0
-116 -44 0
116 -113 44 -111 0
117 113 -111 0
-117 113 111 0
-118 113 0
117 -118 -111 0
-117 -118 111 0
117 118 -113 111 0
-117 118 -113 -111 0
-119 113 0
117 -119 111 0
-117 -119 -111 0
117 119 -113 -111 0
-117 119 -113 111 0
-120 113 0
-120 111 0
-120 -117 0
120 117 -113 -111 0
121 -113 117 0
-121 113 117 0
-122 117 0
121 -122 -113 0
-121 -122 113 0
121 122 113 -117 0
-121 122 -113 -117 0
-123 117 0
121 -123 113 0
-121 -123 -113 0
121 123 -113 -117 0
-121 123 113 -117 0
-124 121 0
-124 117 0
-124 -113 0
124 -121 113 -117 0
125 121 -117 0
-125 121 117 0
-126 121 0
125 -126 -117 0
-125 -126 117 0
125 126 -121 117 0
-125 126 -121 -117 0
-127 121 0
125 -127 117 0
-125 -127 -117 0
125 127 -121 -117 0
-125 127 -121 117 0
-128 121 0
-128 117 0
-128 -125 0
128 125 -121 -117 0
129 75 -121 0
129 -75 121 0
-129 75 121 0
-129 -75 -121 0
130 79 -125 0
130 -79 125 0
-130 79 125 0
-130 -79 -125 0
-131 75 0
-131 125 0
-131 121 -79 0
-131 -121 79 0
131 -75 121 79 -125 0
131 -75 -121 -79 -125 0
132 129 -125 0
-132 129 125 0
-133 129 0
132 -133 -125 0
-132 -133 125 0
132 133 -129 125 0
-132 133 -129 -125 0
-134 129 0
132 -134 125 0
-132 -134 -125 0
132 134 -129 -125 0
-132 134 -129 125 0
-135 129 0
-135 125 0
-135 -132 0
135 132 -129 -125 0
136 75 -129 0
136 -75 129 0
-136 75 129 0
-136 -75 -129 0
137 130 -132 0
137 -130 132 0
-137 130 132 0
-137 -130 -132 0
-138 75 0
-138 132 0
-138 129 -130 0
-138 -129 130 0
138 -75 129 130 -132 0
138 -75 -129 -130 -132 0
139 108 -104 0
139 -108 104 0
-139 108 104 0
-139 -108 -104 0
-140 108 0
-140 104 0
140 -108 -104 0
141 -108 139 0
-141 108 139 0
-142 139 0
141 -142 -108 0
-141 -142 108 0
141 142 108 -139 0
-141 142 -108 -139 0
-143 139 0
141 -143 108 0
-141 -143 -108 0
141 143 -108 -139 0
-141 143 108 -139 0
-144 141 0
-144 139 0
-144 -108 0
144 -141 108 -139 0
145 141 -139 0
-145 141 139 0
-146 141 0
145 -146 -139 0
-145 -146 139 0
145 146 -141 139 0
-145 146 -141 -139 0
-147 141 0
145 -147 139 0
-145 -147 -139 0
145 147 -141 -139 0
-145 147 -141 139 0
-148 141 0
-148 139 0
-148 -145 0
148 145 -141 -139 0
149 -141 145 0
-149 141 145 0
-150 145 0
149 -150 -141 0
-149 -150 141 0
149 150 141 -145 0
-149 150 -141 -145 0
-151 145 0
149 -151 141 0
-149 -151 -141 0
149 151 -141 -145 0
-149 151 141 -145 0
-152 149 0
-152 145 0
-152 -141 0
152 -149 141 -145 0
153 149 -145 0
-153 149 145 0
-154 149 0
153 -154 -145 0
-153 -154 145 0
153 154 -149 145 0
-153 154 -149 -145 0
-155 149 0
153 -155 145 0
-153 -155 -145 0
153 155 -149 -145 0
-153 155 -149 145 0
-156 149 0
-156 145 0
-156 -153 0
156 153 -149 -145 0
157 11 -12 0
157 -11 12 0
-157 11 12 0
-157 -11 -12 0
-158 11 0
-158 12 0
158 -11 -12 0
159 -11 157 0
-159 11 157 0
-160 157 0
159 -160 -11 0
-159 -160 11 0
159 160 11 -157 0
-159 160 -11 -157 0
-161 157 0
159 -161 11 0
-159 -161 -11 0
159 161 -11 -157 0
-159 161 11 -157 0
-162 159 0
-162 157 0
-162 -11 0
162 -159 11 -157 0
163 159 -157 0
163 -159 157 0
-163 159 157 0
-163 -159 -157 0
-164 159 0
-164 157 0
164 -159 -157 0
165 23 -159 0
165 -23 159 0
-165 23 159 0
-165 -23 -159 0
166 99 -163 0
166 -99 163 0
-166 99 163 0
-166 -99 -163 0
-167 23 0
-167 163 0
-167 159 -99 0
-167 -159 99 0
167 -23 159 99 -163 0
167 -23 -159 -99 -163 0
168 165 -163 0
-168 165 163 0
-169 165 0
168 -169 -163 0
-168 -169 163 0
168 169 -165 163 0
-168 169 -165 -163 0
-170 165 0
168 -170 163 0
-168 -170 -163 0
168 170 -165 -163 0
-168 170 -165 163 0
-171 165 0
-171 163 0
-171 -168 0
171 168 -165 -163 0
172 23 -165 0
172 -23 165 0
-172 23 165 0
-172 -23 -165 0
173 166 -168 0
173 -166 168 0
-173 166 168 0
-173 -166 -168 0
-174 23 0
-174 168 0
-174 165 -166 0
-174 -165 166 0
174 -23 165 166 -168 0
174 -23 -165 -166 -168 0
175 23 -173 0
175 -23 173 0
-175 23 173 0
-175 -23 -173 0
-176 23 0
-176 173 0
176 -23 -173 0
177 -23 175 0
-177 23 175 0
-178 175 0
177 -178 -23 0
-177 -178 23 0
177 178 23 -175 0
-177 178 -23 -175 0
-179 175 0
177 -179 23 0
-177 -179 -23 0
177 179 -23 -175 0
-177 179 23 -175 0
-180 177 0
-180 175 0
-180 -23 0
180 -177 23 -175 0
181 177 -175 0
-181 177 175 0
-182 177 0
181 -182 -175 0
-181 -182 175 0
181 182 -177 175 0
-181 182 -177 -175 0
-183 177 0
181 -183 175 0
-181 -183 -175 0
181 183 -177 -175 0
-181 183 -177 175 0
-184 177 0
-184 175 0
-184 -181 0
184 181 -177 -175 0
185 -177 181 0
-185 177 181 0
-186 181 0
185 -186 -177 0
-185 -186 177 0
185 186 177 -181 0
-185 186 -177 -181 0
-187 181 0
185 -187 177 0
-185 -187 -177 0
185 187 -177 -181 0
-185 187 177 -181 0
-188 185 0
-188 181 0
-188 -177 0
188 -185 177 -181 0
189 185 -181 0
-189 185 181 0
-190 185 0
189 -190 -181 0
-189 -190 181 0
189 190 -185 181 0
-189 190 -185 -181 0
-191 185 0
189 -191 181 0
-189 -191 -181 0
189 191 -185 -181 0
-189 191 -185 181 0
-192 185 0
-192 181 0
-192 -189 0
192 189 -185 -181 0
193 185 -149 0
193 -185 149 0
-193 185 149 0
-193 -185 -149 0
194 189 -153 0
194 -189 153 0
-194 189 153 0
-194 -189 -153 0
-195 185 0
-195 153 0
-195 149 -189 0
-195 -149 189 0
195 -185 149 189 -153 0
195 -185 -149 -189 -153 0
196 62 -172 0
196 -62 172 0
-196 62 172 0
-196 -62 -172 0
197 58 -168 0
197 -58 168 0
-197 58 168 0
-197 -58 -168 0
-198 62 0
-198 168 0
-198 172 -58 0
-198 -172 58 0
198 -62 172 58 -168 0
198 -62 -172 -58 -168 0
199 193 -153 0
-199 193 153 0
-200 193 0
199 -200 -153 0
-199 -200 153 0
199 200 -193 153 0
-199 200 -193 -153 0
-201 193 0
199 -201 153 0
-199 -201 -153 0
199 201 -193 -153 0
-199 201 -193 153 0
-202 193 0
-202 153 0
-202 -199 0
202 199 -193 -153 0
203 185 -193 0
203 -185 193 0
-203 185 193 0
-203 -185 -193 0
204 194 -199 0
204 -194 199 0
-204 194 199 0
-204 -194 -199 0
-205 185 0
-205 199 0
-205 193 -194 0
-205 -193 194 0
205 -185 193 194 -199 0
205 -185 -193 -194 -199 0
206 136 -203 0
206 -136 203 0
-206 136 203 0
-206 -136 -203 0
207 132 -199 0
207 -132 199 0
-207 132 199 0
-207 -132 -199 0
-208 136 0
-208 199 0
-208 203 -132 0
-208 -203 132 0
208 -136 203 132 -199 0
208 -136 -203 -132 -199 0
209 206 -199 0
-209 206 199 0
-210 206 0
209 -210 -199 0
-209 -210 199 0
209 210 -206 199 0
-209 210 -206 -199 0
-211 206 0
209 -211 199 0
-209 -211 -199 0
209 211 -206 -199 0
-209 211 -206 199 0
-212 206 0
-212 199 0
-212 -209 0
212 209 -206 -199 0
213 136 -206 0
213 -136 206 0
-213 136 206 0
-213 -136 -206 0
214 207 -209 0
214 -207 209 0
-214 207 209 0
-214 -207 -209 0
-215 136 0
-215 209 0
-215 206 -207 0
-215 -206 207 0
215 -136 206 207 -209 0
215 -136 -206 -207 -209 0
216 136 -214 0
216 -136 214 0
-216 136 214 0
-216 -136 -214 0
-217 136 0
-217 214 0
217 -136 -214 0
218 -136 216 0
-218 136 216 0
-219 216 0
218 -219 -136 0
-218 -219 136 0
218 219 136 -216 0
-218 219 -136 -216 0
-220 216 0
218 -220 136 0
-218 -220 -136 0
218 220 -136 -216 0
-218 220 136 -216 0
-221 218 0
-221 216 0
-221 -136 0
221 -218 136 -216 0
222 218 -216 0
-222 218 216 0
-223 218 0
222 -223 -216 0
-222 -223 216 0
222 223 -218 216 0
-222 223 -218 -216 0
-224 218 0
222 -224 216 0
-222 -224 -216 0
222 224 -218 -216 0
-222 224 -218 216 0
-225 218 0
-225 216 0
-225 -222 0
225 222 -218 -216 0
226 -218 222 0
-226 218 222 0
-227 222 0
226 -227 -218 0
-226 -227 218 0
226 227 218 -222 0
-226 227 -218 -222 0
-228 222 0
226 -228 218 0
-226 -228 -218 0
226 228 -218 -222 0
-226 228 218 -222 0
-229 226 0
-229 222 0
-229 -218 0
229 -226 218 -222 0
230 226 -222 0
-230 226 222 0
-231 226 0
230 -231 -222 0
-230 -231 222 0
230 231 -226 222 0
-230 231 -226 -222 0
-232 226 0
230 -232 222 0
-230 -232 -222 0
230 232 -226 -222 0
-230 232 -226 222 0
-233 226 0
-233 222 0
-233 -230 0
233 230 -226 -222 0
234 213 -209 0
234 -213 209 0
-234 213 209 0
-234 -213 -209 0
-235 213 0
-235 209 0
235 -213 -209 0
236 -213 234 0
-236 213 234 0
-237 234 0
236 -237 -213 0
-236 -237 213 0
236 237 213 -234 0
-236 237 -213 -234 0
-238 234 0
236 -238 213 0
-236 -238 -213 0
236 238 -213 -234 0
-236 238 213 -234 0
-239 236 0
-239 234 0
-239 -213 0
239 -236 213 -234 0
240 236 -234 0
-240 236 234 0
-241 236 0
240 -241 -234 0
-240 -241 234 0
240 241 -236 234 0
-240 241 -236 -234 0
-242 236 0
240 -242 234 0
-240 -242 -234 0
240 242 -236 -234 0
-240 242 -236 234 0
-243 236 0
-243 234 0
-243 -240 0
243 240 -236 -234 0
244 -236 240 0
-244 236 240 0
-245 240 0
244 -245 -236 0
-244 -245 236 0
244 245 236 -240 0
-244 245 -236 -240 0
-246 240 0
244 -246 236 0
-244 -246 -236 0
244 246 -236 -240 0
-244 246 236 -240 0
-247 244 0
-247 240 0
-247 -236 0
247 -244 236 -240 0
248 244 -240 0
-248 244 240 0
-249 244 0
248 -249 -240 0
-248 -249 240 0
248 249 -244 240 0
-248 249 -244 -240 0
-250 244 0
248 -250 240 0
-248 -250 -240 0
248 250 -244 -240 0
-248 250 -244 240 0
-251 244 0
-251 240 0
-251 -248 0
251 248 -244 -240 0
252 196 -168 0
-252 196 168 0
-253 196 0
252 -253 -168 0
-252 -253 168 0
252 253 -196 168 0
-252 253 -196 -168 0
-254 196 0
252 -254 168 0
-252 -254 -168 0
252 254 -196 -168 0
-252 254 -196 168 0
-255 196 0
-255 168 0
-255 -252 0
255 252 -196 -168 0
256 62 -196 0
256 -62 196 0
-256 62 196 0
-256 -62 -196 0
257 197 -252 0
257 -197 252 0
-257 197 252 0
-257 -197 -252 0
-258 62 0
-258 252 0
-258 196 -197 0
-258 -196 197 0
258 -62 196 197 -252 0
258 -62 -196 -197 -252 0
259 62 -257 0
259 -62 257 0
-259 62 257 0
-259 -62 -257 0
-260 62 0
-260 257 0
260 -62 -257 0
261 -62 259 0
-261 62 259 0
-262 259 0
261 -262 -62 0
-261 -262 62 0
261 262 62 -259 0
-261 262 -62 -259 0
-263 259 0
261 -263 62 0
-261 -263 -62 0
261 263 -62 -259 0
-261 263 62 -259 0
-264 261 0
-264 259 0
-264 -62 0
264 -261 62 -259 0
265 261 -259 0
-265 261 259 0
-266 261 0
265 -266 -259 0
-265 -266 259 0
265 266 -261 259 0
-265 266 -261 -259 0
-267 261 0
265 -267 259 0
-265 -267 -259 0
265 267 -261 -259 0
-265 267 -261 259 0
-268 261 0
-268 259 0
-268 -265 0
268 265 -261 -259 0
269 -261 265 0
-269 261 265 0
-270 265 0
269 -270 -261 0
-269 -270 261 0
269 270 261 -265 0
-269 270 -261 -265 0
-271 265 0
269 -271 261 0
-269 -271 -261 0
269 271 -261 -265 0
-269 271 261 -265 0
-272 269 0
-272 265 0
-272 -261 0
272 -269 261 -265 0
273 269 -265 0
-273 269 265 0
-274 269 0
273 -274 -265 0
-273 -274 265 0
273 274 -269 265 0
-273 274 -269 -265 0
-275 269 0
273 -275 265 0
-273 -275 -265 0
273 275 -269 -265 0
-273 275 -269 265 0
-276 269 0
-276 265 0
-276 -273 0
276 273 -269 -265 0
277 75 -269 0
277 -75 269 0
-277 75 269 0
-277 -75 -269 0
278 137 -273 0
278 -137 273 0
-278 137 273 0
-278 -137 -273 0
-279 75 0
-279 273 0
-279 269 -137 0
-279 -269 137 0
279 -75 269 137 -273 0
279 -75 -269 -137 -273 0
280 277 -273 0
-280 277 273 0
-281 277 0
280 -281 -273 0
-280 -281 273 0
280 281 -277 273 0
-280 281 -277 -273 0
-282 277 0
280 -282 273 0
-280 -282 -273 0
280 282 -277 -273 0
-280 282 -277 273 0
-283 277 0
-283 273 0
-283 -280 0
283 280 -277 -273 0
284 75 -277 0
284 -75 277 0
-284 75 277 0
-284 -75 -277 0
285 278 -280 0
285 -278 280 0
-285 278 280 0
-285 -278 -280 0
-286 75 0
-286 280 0
-286 277 -278 0
-286 -277 278 0
286 -75 277 278 -280 0
286 -75 -277 -278 -280 0
287 75 -285 0
287 -75 285 0
-287 75 285 0
-287 -75 -285 0
-288 75 0
-288 285 0
288 -75 -285 0
289 -75 287 0
-289 75 287 0
-290 287 0
289 -290 -75 0
-289 -290 75 0
289 290 75 -287 0
-289 290 -75 -287 0
-291 287 0
289 -291 75 0
-289 -291 -75 0
289 291 -75 -287 0
-289 291 75 -287 0
-292 289 0
-292 287 0
-292 -75 0
292 -289 75 -287 0
293 289 -287 0
-293 289 287 0
-294 289 0
293 -294 -287 0
-293 -294 287 0
293 294 -289 287 0
-293 294 -289 -287 0
-295 289 0
293 -295 287 0
-293 -295 -287 0
293 295 -289 -287 0
-293 295 -289 287 0
-296 289 0
-296 287 0
-296 -293 0
296 293 -289 -287 0
297 -289 293 0
-297 289 293 0
-298 293 0
297 -298 -289 0
-297 -298 289 0
297 298 289 -293 0
-297 298 -289 -293 0
-299 293 0
297 -299 289 0
-297 -299 -289 0
297 299 -289 -293 0
-297 299 289 -293 0
-300 297 0
-300 293 0
-300 -289 0
300 -297 289 -293 0
301 297 -293 0
-301 297 293 0
-302 297 0
301 -302 -293 0
-301 -302 293 0
301 302 -297 293 0
-301 302 -297 -293 0
-303 297 0
301 -303 293 0
-301 -303 -293 0
301 303 -297 -293 0
-301 303 -297 293 0
-304 297 0
-304 293 0
-304 -301 0
304 301 -297 -293 0
305 256 -252 0
305 -256 252 0
-305 256 252 0
-305 -256 -252 0
-306 256 0
-306 252 0
306 -256 -252 0
307 -256 305 0
-307 256 305 0
-308 305 0
307 -308 -256 0
-307 -308 256 0
307 308 256 -305 0
-307 308 -256 -305 0
-309 305 0
307 -309 256 0
-307 -309 -256 0
307 309 -256 -305 0
-307 309 256 -305 0
-310 307 0
-310 305 0
-310 -256 0
310 -307 256 -305 0
311 307 -305 0
-311 307 305 0
-312 307 0
311 -312 -305 0
-311 -312 305 0
311 312 -307 305 0
-311 312 -307 -305 0
-313 307 0
311 -313 305 0
-311 -313 -305 0
311 313 -307 -305 0
-311 313 -307 305 0
-314 307 0
-314 305 0
-314 -311 0
314 311 -307 -305 0
315 -307 311 0
-315 307 311 0
-316 311 0
315 -316 -307 0
-315 -316 307 0
315 316 307 -311 0
-315 316 -307 -311 0
-317 311 0
315 -317 307 0
-315 -317 -307 0
315 317 -307 -311 0
-315 317 307 -311 0
-318 315 0
-318 311 0
-318 -307 0
318 -315 307 -311 0
319 315 -311 0
-319 315 311 0
-320 315 0
319 -320 -311 0
-319 -320 311 0
319 320 -315 311 0
-319 320 -315 -311 0
-321 315 0
319 -321 311 0
-319 -321 -311 0
319 321 -315 -311 0
-319 321 -315 311 0
-322 315 0
-322 311 0
-322 -319 0
322 319 -315 -311 0
323 185 -315 0
323 -185 315 0
-323 185 315 0
-323 -185 -315 0
324 204 -319 0
324 -204 319 0
-324 204 319 0
-324 -204 -319 0
-325 185 0
-325 319 0
-325 315 -204 0
-325 -315 204 0
325 -185 315 204 -319 0
325 -185 -315 -204 -319 0
326 323 -319 0
-326 323 319 0
-327 323 0
326 -327 -319 0
-326 -327 319 0
326 327 -323 319 0
-326 327 -323 -319 0
-328 323 0
326 -328 319 0
-326 -328 -319 0
326 328 -323 -319 0
-326 328 -323 319 0
-329 323 0
-329 319 0
-329 -326 0
329 326 -323 -319 0
330 185 -323 0
330 -185 323 0
-330 185 323 0
-330 -185 -323 0
331 324 -326 0
331 -324 326 0
-331 324 326 0
-331 -324 -326 0
-332 185 0
-332 326 0
-332 323 -324 0
-332 -323 324 0
332 -185 323 324 -326 0
332 -185 -323 -324 -326 0
333 185 -331 0
333 -185 331 0
-333 185 331 0
-333 -185 -331 0
-334 185 0
-334 331 0
334 -185 -331 0
335 -185 333 0
-335 185 333 0
-336 333 0
335 -336 -185 0
-335 -336 185 0
335 336 185 -333 0
-335 336 -185 -333 0
-337 333 0
335 -337 185 0
-335 -337 -185 0
335 337 -185 -333 0
-335 337 185 -333 0
-338 335 0
-338 333 0
-338 -185 0
338 -335 185 -333 0
339 335 -333 0
-339 335 333 0
-340 335 0
339 -340 -333 0
-339 -340 333 0
339 340 -335 333 0
-339 340 -335 -333 0
-341 335 0
339 -341 333 0
-339 -341 -333 0
339 341 -335 -333 0
-339 341 -335 333 0
-342 335 0
-342 333 0
-342 -339 0
342 339 -335 -333 0
343 -335 339 0
-343 335 339 0
-344 339 0
343 -344 -335 0
-343 -344 335 0
343 344 335 -339 0
-343 344 -335 -339 0
-345 339 0
343 -345 335 0
-343 -345 -335 0
343 345 -335 -339 0
-343 345 335 -339 0
-346 343 0
-346 339 0
-346 -335 0
346 -343 335 -339 0
347 343 -339 0
-347 343 339 0
-348 343 0
347 -348 -339 0
-347 -348 339 0
347 348 -343 339 0
-347 348 -343 -339 0
-349 343 0
347 -349 339 0
-347 -349 -339 0
347 349 -343 -339 0
-347 349 -343 339 0
-350 343 0
-350 339 0
-350 -347 0
350 347 -343 -339 0
351 284 -330 0
351 -284 330 0
-351 284 330 0
-351 -284 -330 0
352 280 -326 0
352 -280 326 0
-352 280 326 0
-352 -280 -326 0
-353 284 0
-353 326 0
-353 330 -280 0
-353 -330 280 0
353 -284 330 280 -326 0
353 -284 -330 -280 -326 0
354 351 -326 0
-354 351 326 0
-355 351 0
354 -355 -326 0
-354 -355 326 0
354 355 -351 326 0
-354 355 -351 -326 0
-356 351 0
354 -356 326 0
-354 -356 -326 0
354 356 -351 -326 0
-354 356 -351 326 0
-357 351 0
-357 326 0
-357 -354 0
357 354 -351 -326 0
358 284 -351 0
358 -284 351 0
-358 284 351 0
-358 -284 -351 0
359 352 -354 0
359 -352 354 0
-359 352 354 0
-359 -352 -354 0
-360 284 0
-360 354 0
-360 351 -352 0
-360 -351 352 0
360 -284 351 352 -354 0
360 -284 -351 -352 -354 0
361 284 -359 0
361 -284 359 0
-361 284 359 0
-361 -284 -359 0
-362 284 0
-362 359 0
362 -284 -359 0
363 -284 361 0
-363 284 361 0
-364 361 0
363 -364 -284 0
-363 -364 284 0
363 364 284 -361 0
-363 364 -284 -361 0
-365 361 0
363 -365 284 0
-363 -365 -284 0
363 365 -284 -361 0
-363 365 284 -361 0
-366 363 0
-366 361 0
-366 -284 0
366 -363 284 -361 0
367 363 -361 0
-367 363 361 0
-368 363 0
367 -368 -361 0
-367 -368 361 0
367 368 -363 361 0
-367 368 -363 -361 0
-369 363 0
367 -369 361 0
-367 -369 -361 0
367 369 -363 -361 0
-367 369 -363 361 0
-370 363 0
-370 361 0
-370 -367 0
370 367 -363 -361 0
371 -363 367 0
-371 363 367 0
-372 367 0
371 -372 -363 0
-371 -372 363 0
371 372 363 -367 0
-371 372 -363 -367 0
-373 367 0
371 -373 363 0
-371 -373 -363 0
371 373 -363 -367 0
-371 373 363 -367 0
-374 371 0
-374 367 0
-374 -363 0
374 -371 363 -367 0
375 371 -367 0
-375 371 367 0
-376 371 0
375 -376 -367 0
-375 -376 367 0
375 376 -371 367 0
-375 376 -371 -367 0
-377 371 0
375 -377 367 0
-375 -377 -367 0
375 377 -371 -367 0
-375 377 -371 367 0
-378 371 0
-378 367 0
-378 -375 0
378 375 -371 -367 0
379 358 -354 0
379 -358 354 0
-379 358 354 0
-379 -358 -354 0
-380 358 0
-380 354 0
380 -358 -354 0
381 -358 379 0
-381 358 379 0
-382 379 0
381 -382 -358 0
-381 -382 358 0
381 382 358 -379 0
-381 382 -358 -379 0
-383 379 0
381 -383 358 0
-381 -383 -358 0
381 383 -358 -379 0
-381 383 358 -379 0
-384 381 0
-384 379 0
-384 -358 0
384 -381 358 -379 0
385 381 -379 0
-385 381 379 0
-386 381 0
385 -386 -379 0
-385 -386 379 0
385 386 -381 379 0
-385 386 -381 -379 0
-387 381 0
385 -387 379 0
-385 -387 -379 0
385 387 -381 -379 0
-385 387 -381 379 0
-388 381 0
-388 379 0
-388 -385 0
388 385 -381 -379 0
389 -381 385 0
-389 381 385 0
-390 385 0
389 -390 -381 0
-389 -390 381 0
389 390 381 -385 0
-389 390 -381 -385 0
-391 385 0
389 -391 381 0
-389 -391 -381 0
389 391 -381 -385 0
-389 391 381 -385 0
-392 389 0
-392 385 0
-392 -381 0
392 -389 381 -385 0
393 389 -385 0
-393 389 385 0
-394 389 0
393 -394 -385 0
-393 -394 385 0
393 394 -389 385 0
-393 394 -389 -385 0
-395 389 0
393 -395 385 0
-393 -395 -385 0
393 395 -389 -385 0
-393 395 -389 385 0
-396 389 0
-396 385 0
-396 -393 0
396 393 -389 -385 0
-297 0
-343 0
-347 0
-226 0
-230 0
-371 0
-375 0
-244 0
-248 0
-389 0
-393 0
